(declare-const temp_init Int)
(declare-const r_init Int)
(declare-const _tmp__init Int)
(declare-const da_init Int)
(declare-const db_init Int)
(declare-const c_0 Int)
(declare-const c_1 Int)
(declare-const c_2 Int)
(declare-const c_3 Int)
(declare-const c_4 Int)
(declare-const c_5 Int)
(declare-const c_6 Int)
(declare-const c_7 Int)
(declare-const c_8 Int)
(declare-const c_9 Int)
(declare-const c_10 Int)
(declare-const c_11 Int)
(declare-const c_12 Int)
(declare-const c_13 Int)
(declare-const c_14 Int)
(declare-const c_15 Int)
(declare-const c_16 Int)
(declare-const c_17 Int)
(declare-const c_18 Int)
(declare-const c_19 Int)
(declare-const c_20 Int)
(declare-const c_21 Int)
(declare-const c_22 Int)
(declare-const c_23 Int)
(declare-const c_24 Int)
(declare-const c_25 Int)
(declare-const c_26 Int)
(declare-const c_27 Int)
(declare-const c_28 Int)
(declare-const c_29 Int)
(declare-const c_30 Int)
(declare-const c_31 Int)
(declare-const c_32 Int)
(declare-const c_33 Int)
(declare-const c_34 Int)
(assert (< c_5 0))
(assert (and (>= (+ (* 1 c_6 ) (* (- 1) temp_init ) ) 0) (>= (+ (* (- 1) c_6 ) (* 1 temp_init ) ) 0) (>= (+ (* 1 c_7 ) (* (- 1) r_init ) ) 0) (>= (+ (* (- 1) c_7 ) (* 1 r_init ) ) 0) (>= (+ (* (- 1) _tmp__init ) (* 1 c_8 ) ) 0) (>= (+ (* 1 _tmp__init ) (* (- 1) c_8 ) ) 0) (>= (+ (* 1 c_9 ) (* (- 1) da_init ) ) 0) (>= (+ (* (- 1) c_9 ) (* 1 da_init ) ) 0) (>= (+ (* 1 c_10 ) (* (- 1) db_init ) ) 0) (>= (+ (* (- 1) c_10 ) (* 1 db_init ) ) 0) ))
(assert (forall ((temp Real) (r Real) (_tmp_ Real) (da Real) (db Real) (_r_0 Real) ) (=> (and (>= (+ (* (- 1) 1) (* (- 1) _tmp_ c_12 ) (* (- 1) c_11 ) (* (- 2) c_13 r ) (* (- 2) c_14 r ) (* (- 1) c_15 r ) (* (- 1) c_16 temp ) ) 0) (>= (* 1 r ) 0) (>= (+ (* 1 c_6 ) (* (- 1) temp ) ) 0) (>= (+ (* (- 1) c_6 ) (* 1 temp ) ) 0) (>= (+ (* 1 c_7 ) (* (- 1) r ) ) 0) (>= (+ (* (- 1) c_7 ) (* 1 r ) ) 0) (>= (+ (* (- 1) _tmp_ ) (* 1 c_8 ) ) 0) (>= (+ (* 1 _tmp_ ) (* (- 1) c_8 ) ) 0) (>= (+ (* 1 c_9 ) (* (- 1) da ) ) 0) (>= (+ (* (- 1) c_9 ) (* 1 da ) ) 0) (>= (+ (* 1 c_10 ) (* (- 1) db ) ) 0) (>= (+ (* (- 1) c_10 ) (* 1 db ) ) 0) ) (>= (+ (* 1 _tmp_ c_24 ) (* 1 c_23 ) (* 2 c_25 r ) (* 2 c_26 r ) (* 1 c_27 r ) (* 1 c_28 temp ) ) 0) )))
(assert (forall ((temp Real) (r Real) (_tmp_ Real) (da Real) (db Real) (_r_0 Real) ) (=> (and (>= (+ (* (- 1) 1) (* (- 1) _tmp_ c_12 ) (* (- 1) c_11 ) (* (- 2) c_13 r ) (* (- 2) c_14 r ) (* (- 1) c_15 r ) (* (- 1) c_16 temp ) ) 0) (>= (* 1 r ) 0) (>= (+ (* 1 c_6 ) (* (- 1) temp ) ) 0) (>= (+ (* (- 1) c_6 ) (* 1 temp ) ) 0) (>= (+ (* 1 c_7 ) (* (- 1) r ) ) 0) (>= (+ (* (- 1) c_7 ) (* 1 r ) ) 0) (>= (+ (* (- 1) _tmp_ ) (* 1 c_8 ) ) 0) (>= (+ (* 1 _tmp_ ) (* (- 1) c_8 ) ) 0) (>= (+ (* 1 c_9 ) (* (- 1) da ) ) 0) (>= (+ (* (- 1) c_9 ) (* 1 da ) ) 0) (>= (+ (* 1 c_10 ) (* (- 1) db ) ) 0) (>= (+ (* (- 1) c_10 ) (* 1 db ) ) 0) ) (>= (+ (* 1 _tmp_ c_30 ) (* 1 c_29 ) (* 2 c_31 r ) (* 2 c_32 r ) (* 1 c_33 r ) (* 1 c_34 temp ) ) 0) )))
(assert (forall ((temp Real) (r Real) (_tmp_ Real) (da Real) (db Real) (_r_0 Real) ) (=> (and (>= (+ (* (- 1) 1) (* (- 1) _tmp_ c_18 ) (* (- 1) c_17 ) (* (- 2) c_19 r ) (* (- 2) c_20 r ) (* (- 1) c_21 r ) (* (- 1) c_22 temp ) ) 0) (>= (* 1 r ) 0) (>= (+ (* 1 c_6 ) (* (- 1) temp ) ) 0) (>= (+ (* (- 1) c_6 ) (* 1 temp ) ) 0) (>= (+ (* 1 c_7 ) (* (- 1) r ) ) 0) (>= (+ (* (- 1) c_7 ) (* 1 r ) ) 0) (>= (+ (* (- 1) _tmp_ ) (* 1 c_8 ) ) 0) (>= (+ (* 1 _tmp_ ) (* (- 1) c_8 ) ) 0) (>= (+ (* 1 c_9 ) (* (- 1) da ) ) 0) (>= (+ (* (- 1) c_9 ) (* 1 da ) ) 0) (>= (+ (* 1 c_10 ) (* (- 1) db ) ) 0) (>= (+ (* (- 1) c_10 ) (* 1 db ) ) 0) ) (>= (+ (* 1 _tmp_ c_24 ) (* 1 c_23 ) (* 2 c_25 r ) (* 2 c_26 r ) (* 1 c_27 r ) (* 1 c_28 temp ) ) 0) )))
(assert (forall ((temp Real) (r Real) (_tmp_ Real) (da Real) (db Real) (_r_0 Real) ) (=> (and (>= (+ (* (- 1) 1) (* (- 1) _tmp_ c_18 ) (* (- 1) c_17 ) (* (- 2) c_19 r ) (* (- 2) c_20 r ) (* (- 1) c_21 r ) (* (- 1) c_22 temp ) ) 0) (>= (* 1 r ) 0) (>= (+ (* 1 c_6 ) (* (- 1) temp ) ) 0) (>= (+ (* (- 1) c_6 ) (* 1 temp ) ) 0) (>= (+ (* 1 c_7 ) (* (- 1) r ) ) 0) (>= (+ (* (- 1) c_7 ) (* 1 r ) ) 0) (>= (+ (* (- 1) _tmp_ ) (* 1 c_8 ) ) 0) (>= (+ (* 1 _tmp_ ) (* (- 1) c_8 ) ) 0) (>= (+ (* 1 c_9 ) (* (- 1) da ) ) 0) (>= (+ (* (- 1) c_9 ) (* 1 da ) ) 0) (>= (+ (* 1 c_10 ) (* (- 1) db ) ) 0) (>= (+ (* (- 1) c_10 ) (* 1 db ) ) 0) ) (>= (+ (* 1 _tmp_ c_30 ) (* 1 c_29 ) (* 2 c_31 r ) (* 2 c_32 r ) (* 1 c_33 r ) (* 1 c_34 temp ) ) 0) )))
(assert (forall ((temp Real) (r Real) (_tmp_ Real) (da Real) (db Real) (_r_0 Real) ) (=> (and (>= (+ (* (- 1) 1) (* (- 1) r ) ) 0) (>= (+ (* 1 c_6 ) (* (- 1) temp ) ) 0) (>= (+ (* (- 1) c_6 ) (* 1 temp ) ) 0) (>= (+ (* 1 c_7 ) (* (- 1) r ) ) 0) (>= (+ (* (- 1) c_7 ) (* 1 r ) ) 0) (>= (+ (* (- 1) _tmp_ ) (* 1 c_8 ) ) 0) (>= (+ (* 1 _tmp_ ) (* (- 1) c_8 ) ) 0) (>= (+ (* 1 c_9 ) (* (- 1) da ) ) 0) (>= (+ (* (- 1) c_9 ) (* 1 da ) ) 0) (>= (+ (* 1 c_10 ) (* (- 1) db ) ) 0) (>= (+ (* (- 1) c_10 ) (* 1 db ) ) 0) ) (>= (* 1 c_5 ) 0) )))
(assert (forall ((temp Real) (r Real) (_tmp_ Real) (da Real) (db Real) (_r_0 Real) ) (=> (and (>= (+ (* (- 1) 1) (* (- 1) _r_0 c_12 ) (* (- 1) c_11 ) (* 1 c_13 ) (* (- 1) c_13 da ) (* (- 1) c_14 db ) (* (- 1) c_15 r ) (* (- 1) c_16 temp ) ) 0) (>= (* (- 1) _r_0 ) 0) (>= (+ (* 1 _r_0 ) (* (- 1) _tmp_ c_2 ) (* (- 1) c_0 temp ) (* (- 1) c_1 r ) (* (- 1) c_3 da ) (* (- 1) c_4 db ) ) 0) (>= (+ (* (- 1) _r_0 ) (* 1 _tmp_ c_2 ) (* 1 c_0 temp ) (* 1 c_1 r ) (* 1 c_3 da ) (* 1 c_4 db ) ) 0) (>= (+ (* 1 da ) (* (- 1) r ) ) 0) (>= (+ (* 1 _tmp_ c_12 ) (* 1 c_11 ) (* 1 c_13 da ) (* 1 c_14 db ) (* 1 c_15 r ) (* 1 c_16 temp ) ) 0) (>= (+ (* 1 _tmp_ c_18 ) (* 1 c_17 ) (* 1 c_19 da ) (* 1 c_20 db ) (* 1 c_21 r ) (* 1 c_22 temp ) ) 0) ) (>= (+ (* 1 _r_0 c_24 ) (* 1 c_23 ) (* (- 1) c_25 ) (* 1 c_25 da ) (* 1 c_26 db ) (* 1 c_27 r ) (* 1 c_28 temp ) ) 0) )))
(assert (forall ((temp Real) (r Real) (_tmp_ Real) (da Real) (db Real) (_r_0 Real) ) (=> (and (>= (+ (* (- 1) 1) (* (- 1) _r_0 c_12 ) (* (- 1) c_11 ) (* 1 c_13 ) (* (- 1) c_13 da ) (* (- 1) c_14 db ) (* (- 1) c_15 r ) (* (- 1) c_16 temp ) ) 0) (>= (* (- 1) _r_0 ) 0) (>= (+ (* 1 _r_0 ) (* (- 1) _tmp_ c_2 ) (* (- 1) c_0 temp ) (* (- 1) c_1 r ) (* (- 1) c_3 da ) (* (- 1) c_4 db ) ) 0) (>= (+ (* (- 1) _r_0 ) (* 1 _tmp_ c_2 ) (* 1 c_0 temp ) (* 1 c_1 r ) (* 1 c_3 da ) (* 1 c_4 db ) ) 0) (>= (+ (* 1 da ) (* (- 1) r ) ) 0) (>= (+ (* 1 _tmp_ c_12 ) (* 1 c_11 ) (* 1 c_13 da ) (* 1 c_14 db ) (* 1 c_15 r ) (* 1 c_16 temp ) ) 0) (>= (+ (* 1 _tmp_ c_18 ) (* 1 c_17 ) (* 1 c_19 da ) (* 1 c_20 db ) (* 1 c_21 r ) (* 1 c_22 temp ) ) 0) ) (>= (+ (* 1 _r_0 c_30 ) (* 1 c_29 ) (* (- 1) c_31 ) (* 1 c_31 da ) (* 1 c_32 db ) (* 1 c_33 r ) (* 1 c_34 temp ) ) 0) )))
(assert (forall ((temp Real) (r Real) (_tmp_ Real) (da Real) (db Real) (_r_0 Real) ) (=> (and (>= (+ (* (- 1) 1) (* (- 1) _r_0 c_18 ) (* (- 1) c_17 ) (* 1 c_19 ) (* (- 1) c_19 da ) (* (- 1) c_20 db ) (* (- 1) c_21 r ) (* (- 1) c_22 temp ) ) 0) (>= (* (- 1) _r_0 ) 0) (>= (+ (* 1 _r_0 ) (* (- 1) _tmp_ c_2 ) (* (- 1) c_0 temp ) (* (- 1) c_1 r ) (* (- 1) c_3 da ) (* (- 1) c_4 db ) ) 0) (>= (+ (* (- 1) _r_0 ) (* 1 _tmp_ c_2 ) (* 1 c_0 temp ) (* 1 c_1 r ) (* 1 c_3 da ) (* 1 c_4 db ) ) 0) (>= (+ (* 1 da ) (* (- 1) r ) ) 0) (>= (+ (* 1 _tmp_ c_12 ) (* 1 c_11 ) (* 1 c_13 da ) (* 1 c_14 db ) (* 1 c_15 r ) (* 1 c_16 temp ) ) 0) (>= (+ (* 1 _tmp_ c_18 ) (* 1 c_17 ) (* 1 c_19 da ) (* 1 c_20 db ) (* 1 c_21 r ) (* 1 c_22 temp ) ) 0) ) (>= (+ (* 1 _r_0 c_24 ) (* 1 c_23 ) (* (- 1) c_25 ) (* 1 c_25 da ) (* 1 c_26 db ) (* 1 c_27 r ) (* 1 c_28 temp ) ) 0) )))
(assert (forall ((temp Real) (r Real) (_tmp_ Real) (da Real) (db Real) (_r_0 Real) ) (=> (and (>= (+ (* (- 1) 1) (* (- 1) _r_0 c_18 ) (* (- 1) c_17 ) (* 1 c_19 ) (* (- 1) c_19 da ) (* (- 1) c_20 db ) (* (- 1) c_21 r ) (* (- 1) c_22 temp ) ) 0) (>= (* (- 1) _r_0 ) 0) (>= (+ (* 1 _r_0 ) (* (- 1) _tmp_ c_2 ) (* (- 1) c_0 temp ) (* (- 1) c_1 r ) (* (- 1) c_3 da ) (* (- 1) c_4 db ) ) 0) (>= (+ (* (- 1) _r_0 ) (* 1 _tmp_ c_2 ) (* 1 c_0 temp ) (* 1 c_1 r ) (* 1 c_3 da ) (* 1 c_4 db ) ) 0) (>= (+ (* 1 da ) (* (- 1) r ) ) 0) (>= (+ (* 1 _tmp_ c_12 ) (* 1 c_11 ) (* 1 c_13 da ) (* 1 c_14 db ) (* 1 c_15 r ) (* 1 c_16 temp ) ) 0) (>= (+ (* 1 _tmp_ c_18 ) (* 1 c_17 ) (* 1 c_19 da ) (* 1 c_20 db ) (* 1 c_21 r ) (* 1 c_22 temp ) ) 0) ) (>= (+ (* 1 _r_0 c_30 ) (* 1 c_29 ) (* (- 1) c_31 ) (* 1 c_31 da ) (* 1 c_32 db ) (* 1 c_33 r ) (* 1 c_34 temp ) ) 0) )))
(assert (forall ((temp Real) (r Real) (_tmp_ Real) (da Real) (db Real) (_r_0 Real) ) (=> (and (>= (+ (* (- 1) 1) (* (- 1) _r_0 c_12 ) (* (- 1) c_11 ) (* 1 c_13 ) (* (- 1) c_13 da ) (* (- 1) c_14 db ) (* (- 1) c_15 r ) (* (- 1) c_16 temp ) ) 0) (>= (* (- 1) _r_0 ) 0) (>= (+ (* 1 _r_0 ) (* (- 1) _tmp_ c_2 ) (* (- 1) c_0 temp ) (* (- 1) c_1 r ) (* (- 1) c_3 da ) (* (- 1) c_4 db ) ) 0) (>= (+ (* (- 1) _r_0 ) (* 1 _tmp_ c_2 ) (* 1 c_0 temp ) (* 1 c_1 r ) (* 1 c_3 da ) (* 1 c_4 db ) ) 0) (>= (+ (* 1 da ) (* (- 1) r ) ) 0) (>= (+ (* 1 _tmp_ c_24 ) (* 1 c_23 ) (* 1 c_25 da ) (* 1 c_26 db ) (* 1 c_27 r ) (* 1 c_28 temp ) ) 0) (>= (+ (* 1 _tmp_ c_30 ) (* 1 c_29 ) (* 1 c_31 da ) (* 1 c_32 db ) (* 1 c_33 r ) (* 1 c_34 temp ) ) 0) ) (>= (+ (* 1 _r_0 c_24 ) (* 1 c_23 ) (* (- 1) c_25 ) (* 1 c_25 da ) (* 1 c_26 db ) (* 1 c_27 r ) (* 1 c_28 temp ) ) 0) )))
(assert (forall ((temp Real) (r Real) (_tmp_ Real) (da Real) (db Real) (_r_0 Real) ) (=> (and (>= (+ (* (- 1) 1) (* (- 1) _r_0 c_12 ) (* (- 1) c_11 ) (* 1 c_13 ) (* (- 1) c_13 da ) (* (- 1) c_14 db ) (* (- 1) c_15 r ) (* (- 1) c_16 temp ) ) 0) (>= (* (- 1) _r_0 ) 0) (>= (+ (* 1 _r_0 ) (* (- 1) _tmp_ c_2 ) (* (- 1) c_0 temp ) (* (- 1) c_1 r ) (* (- 1) c_3 da ) (* (- 1) c_4 db ) ) 0) (>= (+ (* (- 1) _r_0 ) (* 1 _tmp_ c_2 ) (* 1 c_0 temp ) (* 1 c_1 r ) (* 1 c_3 da ) (* 1 c_4 db ) ) 0) (>= (+ (* 1 da ) (* (- 1) r ) ) 0) (>= (+ (* 1 _tmp_ c_24 ) (* 1 c_23 ) (* 1 c_25 da ) (* 1 c_26 db ) (* 1 c_27 r ) (* 1 c_28 temp ) ) 0) (>= (+ (* 1 _tmp_ c_30 ) (* 1 c_29 ) (* 1 c_31 da ) (* 1 c_32 db ) (* 1 c_33 r ) (* 1 c_34 temp ) ) 0) ) (>= (+ (* 1 _r_0 c_30 ) (* 1 c_29 ) (* (- 1) c_31 ) (* 1 c_31 da ) (* 1 c_32 db ) (* 1 c_33 r ) (* 1 c_34 temp ) ) 0) )))
(assert (forall ((temp Real) (r Real) (_tmp_ Real) (da Real) (db Real) (_r_0 Real) ) (=> (and (>= (+ (* (- 1) 1) (* (- 1) _r_0 c_18 ) (* (- 1) c_17 ) (* 1 c_19 ) (* (- 1) c_19 da ) (* (- 1) c_20 db ) (* (- 1) c_21 r ) (* (- 1) c_22 temp ) ) 0) (>= (* (- 1) _r_0 ) 0) (>= (+ (* 1 _r_0 ) (* (- 1) _tmp_ c_2 ) (* (- 1) c_0 temp ) (* (- 1) c_1 r ) (* (- 1) c_3 da ) (* (- 1) c_4 db ) ) 0) (>= (+ (* (- 1) _r_0 ) (* 1 _tmp_ c_2 ) (* 1 c_0 temp ) (* 1 c_1 r ) (* 1 c_3 da ) (* 1 c_4 db ) ) 0) (>= (+ (* 1 da ) (* (- 1) r ) ) 0) (>= (+ (* 1 _tmp_ c_24 ) (* 1 c_23 ) (* 1 c_25 da ) (* 1 c_26 db ) (* 1 c_27 r ) (* 1 c_28 temp ) ) 0) (>= (+ (* 1 _tmp_ c_30 ) (* 1 c_29 ) (* 1 c_31 da ) (* 1 c_32 db ) (* 1 c_33 r ) (* 1 c_34 temp ) ) 0) ) (>= (+ (* 1 _r_0 c_24 ) (* 1 c_23 ) (* (- 1) c_25 ) (* 1 c_25 da ) (* 1 c_26 db ) (* 1 c_27 r ) (* 1 c_28 temp ) ) 0) )))
(assert (forall ((temp Real) (r Real) (_tmp_ Real) (da Real) (db Real) (_r_0 Real) ) (=> (and (>= (+ (* (- 1) 1) (* (- 1) _r_0 c_18 ) (* (- 1) c_17 ) (* 1 c_19 ) (* (- 1) c_19 da ) (* (- 1) c_20 db ) (* (- 1) c_21 r ) (* (- 1) c_22 temp ) ) 0) (>= (* (- 1) _r_0 ) 0) (>= (+ (* 1 _r_0 ) (* (- 1) _tmp_ c_2 ) (* (- 1) c_0 temp ) (* (- 1) c_1 r ) (* (- 1) c_3 da ) (* (- 1) c_4 db ) ) 0) (>= (+ (* (- 1) _r_0 ) (* 1 _tmp_ c_2 ) (* 1 c_0 temp ) (* 1 c_1 r ) (* 1 c_3 da ) (* 1 c_4 db ) ) 0) (>= (+ (* 1 da ) (* (- 1) r ) ) 0) (>= (+ (* 1 _tmp_ c_24 ) (* 1 c_23 ) (* 1 c_25 da ) (* 1 c_26 db ) (* 1 c_27 r ) (* 1 c_28 temp ) ) 0) (>= (+ (* 1 _tmp_ c_30 ) (* 1 c_29 ) (* 1 c_31 da ) (* 1 c_32 db ) (* 1 c_33 r ) (* 1 c_34 temp ) ) 0) ) (>= (+ (* 1 _r_0 c_30 ) (* 1 c_29 ) (* (- 1) c_31 ) (* 1 c_31 da ) (* 1 c_32 db ) (* 1 c_33 r ) (* 1 c_34 temp ) ) 0) )))
(assert (forall ((temp Real) (r Real) (_tmp_ Real) (da Real) (db Real) (_r_0 Real) ) (=> (and (>= (+ (* (- 1) 1) (* (- 1) _r_0 c_12 ) (* (- 1) c_11 ) (* 1 c_13 ) (* (- 1) c_13 db ) (* 1 c_14 ) (* (- 1) c_14 db ) (* (- 1) c_15 r ) (* (- 1) c_16 da ) ) 0) (>= (+ (* (- 1) 1) (* 1 _r_0 ) ) 0) (>= (+ (* 1 _r_0 ) (* (- 1) _tmp_ c_2 ) (* (- 1) c_0 temp ) (* (- 1) c_1 r ) (* (- 1) c_3 da ) (* (- 1) c_4 db ) ) 0) (>= (+ (* (- 1) _r_0 ) (* 1 _tmp_ c_2 ) (* 1 c_0 temp ) (* 1 c_1 r ) (* 1 c_3 da ) (* 1 c_4 db ) ) 0) (>= (+ (* 1 da ) (* (- 1) r ) ) 0) (>= (+ (* 1 _tmp_ c_12 ) (* 1 c_11 ) (* 1 c_13 da ) (* 1 c_14 db ) (* 1 c_15 r ) (* 1 c_16 temp ) ) 0) (>= (+ (* 1 _tmp_ c_18 ) (* 1 c_17 ) (* 1 c_19 da ) (* 1 c_20 db ) (* 1 c_21 r ) (* 1 c_22 temp ) ) 0) ) (>= (+ (* 1 _r_0 c_24 ) (* 1 c_23 ) (* (- 1) c_25 ) (* 1 c_25 db ) (* (- 1) c_26 ) (* 1 c_26 db ) (* 1 c_27 r ) (* 1 c_28 da ) ) 0) )))
(assert (forall ((temp Real) (r Real) (_tmp_ Real) (da Real) (db Real) (_r_0 Real) ) (=> (and (>= (+ (* (- 1) 1) (* (- 1) _r_0 c_12 ) (* (- 1) c_11 ) (* 1 c_13 ) (* (- 1) c_13 db ) (* 1 c_14 ) (* (- 1) c_14 db ) (* (- 1) c_15 r ) (* (- 1) c_16 da ) ) 0) (>= (+ (* (- 1) 1) (* 1 _r_0 ) ) 0) (>= (+ (* 1 _r_0 ) (* (- 1) _tmp_ c_2 ) (* (- 1) c_0 temp ) (* (- 1) c_1 r ) (* (- 1) c_3 da ) (* (- 1) c_4 db ) ) 0) (>= (+ (* (- 1) _r_0 ) (* 1 _tmp_ c_2 ) (* 1 c_0 temp ) (* 1 c_1 r ) (* 1 c_3 da ) (* 1 c_4 db ) ) 0) (>= (+ (* 1 da ) (* (- 1) r ) ) 0) (>= (+ (* 1 _tmp_ c_12 ) (* 1 c_11 ) (* 1 c_13 da ) (* 1 c_14 db ) (* 1 c_15 r ) (* 1 c_16 temp ) ) 0) (>= (+ (* 1 _tmp_ c_18 ) (* 1 c_17 ) (* 1 c_19 da ) (* 1 c_20 db ) (* 1 c_21 r ) (* 1 c_22 temp ) ) 0) ) (>= (+ (* 1 _r_0 c_30 ) (* 1 c_29 ) (* (- 1) c_31 ) (* 1 c_31 db ) (* (- 1) c_32 ) (* 1 c_32 db ) (* 1 c_33 r ) (* 1 c_34 da ) ) 0) )))
(assert (forall ((temp Real) (r Real) (_tmp_ Real) (da Real) (db Real) (_r_0 Real) ) (=> (and (>= (+ (* (- 1) 1) (* (- 1) _r_0 c_18 ) (* (- 1) c_17 ) (* 1 c_19 ) (* (- 1) c_19 db ) (* 1 c_20 ) (* (- 1) c_20 db ) (* (- 1) c_21 r ) (* (- 1) c_22 da ) ) 0) (>= (+ (* (- 1) 1) (* 1 _r_0 ) ) 0) (>= (+ (* 1 _r_0 ) (* (- 1) _tmp_ c_2 ) (* (- 1) c_0 temp ) (* (- 1) c_1 r ) (* (- 1) c_3 da ) (* (- 1) c_4 db ) ) 0) (>= (+ (* (- 1) _r_0 ) (* 1 _tmp_ c_2 ) (* 1 c_0 temp ) (* 1 c_1 r ) (* 1 c_3 da ) (* 1 c_4 db ) ) 0) (>= (+ (* 1 da ) (* (- 1) r ) ) 0) (>= (+ (* 1 _tmp_ c_12 ) (* 1 c_11 ) (* 1 c_13 da ) (* 1 c_14 db ) (* 1 c_15 r ) (* 1 c_16 temp ) ) 0) (>= (+ (* 1 _tmp_ c_18 ) (* 1 c_17 ) (* 1 c_19 da ) (* 1 c_20 db ) (* 1 c_21 r ) (* 1 c_22 temp ) ) 0) ) (>= (+ (* 1 _r_0 c_24 ) (* 1 c_23 ) (* (- 1) c_25 ) (* 1 c_25 db ) (* (- 1) c_26 ) (* 1 c_26 db ) (* 1 c_27 r ) (* 1 c_28 da ) ) 0) )))
(assert (forall ((temp Real) (r Real) (_tmp_ Real) (da Real) (db Real) (_r_0 Real) ) (=> (and (>= (+ (* (- 1) 1) (* (- 1) _r_0 c_18 ) (* (- 1) c_17 ) (* 1 c_19 ) (* (- 1) c_19 db ) (* 1 c_20 ) (* (- 1) c_20 db ) (* (- 1) c_21 r ) (* (- 1) c_22 da ) ) 0) (>= (+ (* (- 1) 1) (* 1 _r_0 ) ) 0) (>= (+ (* 1 _r_0 ) (* (- 1) _tmp_ c_2 ) (* (- 1) c_0 temp ) (* (- 1) c_1 r ) (* (- 1) c_3 da ) (* (- 1) c_4 db ) ) 0) (>= (+ (* (- 1) _r_0 ) (* 1 _tmp_ c_2 ) (* 1 c_0 temp ) (* 1 c_1 r ) (* 1 c_3 da ) (* 1 c_4 db ) ) 0) (>= (+ (* 1 da ) (* (- 1) r ) ) 0) (>= (+ (* 1 _tmp_ c_12 ) (* 1 c_11 ) (* 1 c_13 da ) (* 1 c_14 db ) (* 1 c_15 r ) (* 1 c_16 temp ) ) 0) (>= (+ (* 1 _tmp_ c_18 ) (* 1 c_17 ) (* 1 c_19 da ) (* 1 c_20 db ) (* 1 c_21 r ) (* 1 c_22 temp ) ) 0) ) (>= (+ (* 1 _r_0 c_30 ) (* 1 c_29 ) (* (- 1) c_31 ) (* 1 c_31 db ) (* (- 1) c_32 ) (* 1 c_32 db ) (* 1 c_33 r ) (* 1 c_34 da ) ) 0) )))
(assert (forall ((temp Real) (r Real) (_tmp_ Real) (da Real) (db Real) (_r_0 Real) ) (=> (and (>= (+ (* (- 1) 1) (* (- 1) _r_0 c_12 ) (* (- 1) c_11 ) (* 1 c_13 ) (* (- 1) c_13 db ) (* 1 c_14 ) (* (- 1) c_14 db ) (* (- 1) c_15 r ) (* (- 1) c_16 da ) ) 0) (>= (+ (* (- 1) 1) (* 1 _r_0 ) ) 0) (>= (+ (* 1 _r_0 ) (* (- 1) _tmp_ c_2 ) (* (- 1) c_0 temp ) (* (- 1) c_1 r ) (* (- 1) c_3 da ) (* (- 1) c_4 db ) ) 0) (>= (+ (* (- 1) _r_0 ) (* 1 _tmp_ c_2 ) (* 1 c_0 temp ) (* 1 c_1 r ) (* 1 c_3 da ) (* 1 c_4 db ) ) 0) (>= (+ (* 1 da ) (* (- 1) r ) ) 0) (>= (+ (* 1 _tmp_ c_24 ) (* 1 c_23 ) (* 1 c_25 da ) (* 1 c_26 db ) (* 1 c_27 r ) (* 1 c_28 temp ) ) 0) (>= (+ (* 1 _tmp_ c_30 ) (* 1 c_29 ) (* 1 c_31 da ) (* 1 c_32 db ) (* 1 c_33 r ) (* 1 c_34 temp ) ) 0) ) (>= (+ (* 1 _r_0 c_24 ) (* 1 c_23 ) (* (- 1) c_25 ) (* 1 c_25 db ) (* (- 1) c_26 ) (* 1 c_26 db ) (* 1 c_27 r ) (* 1 c_28 da ) ) 0) )))
(assert (forall ((temp Real) (r Real) (_tmp_ Real) (da Real) (db Real) (_r_0 Real) ) (=> (and (>= (+ (* (- 1) 1) (* (- 1) _r_0 c_12 ) (* (- 1) c_11 ) (* 1 c_13 ) (* (- 1) c_13 db ) (* 1 c_14 ) (* (- 1) c_14 db ) (* (- 1) c_15 r ) (* (- 1) c_16 da ) ) 0) (>= (+ (* (- 1) 1) (* 1 _r_0 ) ) 0) (>= (+ (* 1 _r_0 ) (* (- 1) _tmp_ c_2 ) (* (- 1) c_0 temp ) (* (- 1) c_1 r ) (* (- 1) c_3 da ) (* (- 1) c_4 db ) ) 0) (>= (+ (* (- 1) _r_0 ) (* 1 _tmp_ c_2 ) (* 1 c_0 temp ) (* 1 c_1 r ) (* 1 c_3 da ) (* 1 c_4 db ) ) 0) (>= (+ (* 1 da ) (* (- 1) r ) ) 0) (>= (+ (* 1 _tmp_ c_24 ) (* 1 c_23 ) (* 1 c_25 da ) (* 1 c_26 db ) (* 1 c_27 r ) (* 1 c_28 temp ) ) 0) (>= (+ (* 1 _tmp_ c_30 ) (* 1 c_29 ) (* 1 c_31 da ) (* 1 c_32 db ) (* 1 c_33 r ) (* 1 c_34 temp ) ) 0) ) (>= (+ (* 1 _r_0 c_30 ) (* 1 c_29 ) (* (- 1) c_31 ) (* 1 c_31 db ) (* (- 1) c_32 ) (* 1 c_32 db ) (* 1 c_33 r ) (* 1 c_34 da ) ) 0) )))
(assert (forall ((temp Real) (r Real) (_tmp_ Real) (da Real) (db Real) (_r_0 Real) ) (=> (and (>= (+ (* (- 1) 1) (* (- 1) _r_0 c_18 ) (* (- 1) c_17 ) (* 1 c_19 ) (* (- 1) c_19 db ) (* 1 c_20 ) (* (- 1) c_20 db ) (* (- 1) c_21 r ) (* (- 1) c_22 da ) ) 0) (>= (+ (* (- 1) 1) (* 1 _r_0 ) ) 0) (>= (+ (* 1 _r_0 ) (* (- 1) _tmp_ c_2 ) (* (- 1) c_0 temp ) (* (- 1) c_1 r ) (* (- 1) c_3 da ) (* (- 1) c_4 db ) ) 0) (>= (+ (* (- 1) _r_0 ) (* 1 _tmp_ c_2 ) (* 1 c_0 temp ) (* 1 c_1 r ) (* 1 c_3 da ) (* 1 c_4 db ) ) 0) (>= (+ (* 1 da ) (* (- 1) r ) ) 0) (>= (+ (* 1 _tmp_ c_24 ) (* 1 c_23 ) (* 1 c_25 da ) (* 1 c_26 db ) (* 1 c_27 r ) (* 1 c_28 temp ) ) 0) (>= (+ (* 1 _tmp_ c_30 ) (* 1 c_29 ) (* 1 c_31 da ) (* 1 c_32 db ) (* 1 c_33 r ) (* 1 c_34 temp ) ) 0) ) (>= (+ (* 1 _r_0 c_24 ) (* 1 c_23 ) (* (- 1) c_25 ) (* 1 c_25 db ) (* (- 1) c_26 ) (* 1 c_26 db ) (* 1 c_27 r ) (* 1 c_28 da ) ) 0) )))
(assert (forall ((temp Real) (r Real) (_tmp_ Real) (da Real) (db Real) (_r_0 Real) ) (=> (and (>= (+ (* (- 1) 1) (* (- 1) _r_0 c_18 ) (* (- 1) c_17 ) (* 1 c_19 ) (* (- 1) c_19 db ) (* 1 c_20 ) (* (- 1) c_20 db ) (* (- 1) c_21 r ) (* (- 1) c_22 da ) ) 0) (>= (+ (* (- 1) 1) (* 1 _r_0 ) ) 0) (>= (+ (* 1 _r_0 ) (* (- 1) _tmp_ c_2 ) (* (- 1) c_0 temp ) (* (- 1) c_1 r ) (* (- 1) c_3 da ) (* (- 1) c_4 db ) ) 0) (>= (+ (* (- 1) _r_0 ) (* 1 _tmp_ c_2 ) (* 1 c_0 temp ) (* 1 c_1 r ) (* 1 c_3 da ) (* 1 c_4 db ) ) 0) (>= (+ (* 1 da ) (* (- 1) r ) ) 0) (>= (+ (* 1 _tmp_ c_24 ) (* 1 c_23 ) (* 1 c_25 da ) (* 1 c_26 db ) (* 1 c_27 r ) (* 1 c_28 temp ) ) 0) (>= (+ (* 1 _tmp_ c_30 ) (* 1 c_29 ) (* 1 c_31 da ) (* 1 c_32 db ) (* 1 c_33 r ) (* 1 c_34 temp ) ) 0) ) (>= (+ (* 1 _r_0 c_30 ) (* 1 c_29 ) (* (- 1) c_31 ) (* 1 c_31 db ) (* (- 1) c_32 ) (* 1 c_32 db ) (* 1 c_33 r ) (* 1 c_34 da ) ) 0) )))
(assert (forall ((temp Real) (r Real) (_tmp_ Real) (da Real) (db Real) (_r_0 Real) ) (=> (and (>= (+ (* (- 1) 1) (* (- 1) da ) (* 1 r ) ) 0) (>= (+ (* 1 _tmp_ c_12 ) (* 1 c_11 ) (* 1 c_13 da ) (* 1 c_14 db ) (* 1 c_15 r ) (* 1 c_16 temp ) ) 0) (>= (+ (* 1 _tmp_ c_18 ) (* 1 c_17 ) (* 1 c_19 da ) (* 1 c_20 db ) (* 1 c_21 r ) (* 1 c_22 temp ) ) 0) ) (>= (* 1 c_5 ) 0) )))
(assert (forall ((temp Real) (r Real) (_tmp_ Real) (da Real) (db Real) (_r_0 Real) ) (=> (and (>= (+ (* (- 1) 1) (* (- 1) da ) (* 1 r ) ) 0) (>= (+ (* 1 _tmp_ c_24 ) (* 1 c_23 ) (* 1 c_25 da ) (* 1 c_26 db ) (* 1 c_27 r ) (* 1 c_28 temp ) ) 0) (>= (+ (* 1 _tmp_ c_30 ) (* 1 c_29 ) (* 1 c_31 da ) (* 1 c_32 db ) (* 1 c_33 r ) (* 1 c_34 temp ) ) 0) ) (>= (* 1 c_5 ) 0) )))
(check-sat)
(get-model)

